p edge 320 1280
e 1 27
e 1 131
e 1 150
e 1 317
e 2 41
e 2 131
e 2 221
e 2 293
e 3 78
e 3 168
e 3 210
e 3 216
e 4 114
e 4 135
e 4 143
e 4 151
e 5 154
e 5 204
e 5 208
e 5 319
e 6 69
e 6 69
e 6 71
e 6 200
e 7 79
e 7 85
e 7 104
e 7 116
e 8 46
e 8 156
e 8 166
e 8 174
e 9 53
e 9 86
e 9 124
e 9 181
e 10 30
e 10 52
e 10 100
e 10 289
e 11 126
e 11 215
e 11 270
e 11 310
e 12 30
e 12 88
e 12 212
e 12 272
e 13 33
e 13 43
e 13 299
e 13 304
e 14 72
e 14 148
e 14 184
e 14 284
e 15 10
e 15 78
e 15 167
e 15 209
e 16 107
e 16 159
e 16 279
e 16 285
e 17 1
e 17 37
e 17 83
e 17 164
e 18 64
e 18 129
e 18 151
e 18 256
e 19 21
e 19 300
e 19 309
e 19 317
e 20 210
e 20 309
e 20 312
e 20 316
e 21 105
e 21 208
e 21 235
e 21 298
e 22 57
e 22 155
e 22 188
e 22 199
e 23 8
e 23 43
e 23 49
e 23 134
e 24 13
e 24 73
e 24 114
e 24 233
e 25 51
e 25 96
e 25 191
e 25 193
e 26 27
e 26 41
e 26 158
e 26 176
e 27 112
e 27 134
e 27 190
e 27 294
e 28 43
e 28 153
e 28 213
e 28 239
e 29 163
e 29 209
e 29 227
e 29 298
e 30 72
e 30 74
e 30 117
e 30 319
e 31 93
e 31 137
e 31 178
e 31 307
e 32 157
e 32 234
e 32 280
e 32 288
e 33 2
e 33 114
e 33 144
e 33 227
e 34 26
e 34 90
e 34 276
e 34 308
e 35 50
e 35 160
e 35 264
e 35 313
e 36 77
e 36 82
e 36 168
e 36 178
e 37 60
e 37 138
e 37 239
e 37 301
e 38 30
e 38 215
e 38 222
e 38 265
e 39 193
e 39 202
e 39 269
e 39 302
e 40 47
e 40 53
e 40 63
e 40 289
e 41 35
e 41 217
e 41 231
e 41 241
e 42 16
e 42 77
e 42 127
e 42 292
e 43 129
e 43 152
e 43 176
e 43 278
e 44 3
e 44 152
e 44 154
e 44 157
e 45 18
e 45 133
e 45 139
e 45 162
e 46 60
e 46 121
e 46 185
e 46 243
e 47 8
e 47 34
e 47 38
e 47 146
e 48 18
e 48 196
e 48 252
e 48 255
e 49 34
e 49 75
e 49 239
e 49 316
e 50 18
e 50 58
e 50 221
e 50 314
e 51 28
e 51 145
e 51 171
e 51 241
e 52 27
e 52 55
e 52 230
e 52 247
e 53 166
e 53 176
e 53 263
e 53 294
e 54 7
e 54 71
e 54 246
e 54 296
e 55 9
e 55 17
e 55 97
e 55 119
e 56 77
e 56 114
e 56 124
e 56 205
e 57 29
e 57 162
e 57 276
e 57 299
e 58 155
e 58 208
e 58 252
e 58 293
e 59 11
e 59 19
e 59 102
e 59 212
e 60 7
e 60 95
e 60 260
e 60 304
e 61 128
e 61 132
e 61 256
e 61 314
e 62 55
e 62 106
e 62 211
e 62 212
e 63 68
e 63 225
e 63 247
e 63 317
e 64 70
e 64 74
e 64 186
e 64 259
e 65 35
e 65 213
e 65 238
e 65 283
e 66 21
e 66 39
e 66 118
e 66 267
e 67 113
e 67 186
e 67 261
e 67 319
e 68 141
e 68 159
e 68 206
e 68 206
e 69 88
e 69 168
e 69 176
e 69 242
e 70 33
e 70 225
e 70 269
e 70 286
e 71 110
e 71 222
e 71 224
e 71 235
e 72 100
e 72 199
e 72 234
e 72 278
e 73 146
e 73 295
e 73 312
e 73 313
e 74 85
e 74 237
e 74 251
e 74 287
e 75 119
e 75 154
e 75 196
e 75 268
e 76 139
e 76 158
e 76 271
e 76 278
e 77 9
e 77 64
e 77 68
e 77 177
e 78 76
e 78 86
e 78 219
e 78 254
e 79 15
e 79 92
e 79 174
e 79 243
e 80 63
e 80 139
e 80 205
e 80 298
e 81 210
e 81 232
e 81 297
e 81 301
e 82 3
e 82 77
e 82 204
e 82 303
e 83 34
e 83 149
e 83 260
e 83 301
e 84 65
e 84 173
e 84 179
e 84 190
e 85 65
e 85 218
e 85 263
e 85 283
e 86 41
e 86 62
e 86 95
e 86 116
e 87 72
e 87 162
e 87 209
e 87 296
e 88 51
e 88 95
e 88 254
e 88 273
e 89 38
e 89 58
e 89 166
e 89 303
e 90 83
e 90 100
e 90 134
e 90 226
e 91 72
e 91 77
e 91 94
e 91 114
e 92 5
e 92 25
e 92 54
e 92 318
e 93 31
e 93 113
e 93 156
e 93 179
e 94 6
e 94 8
e 94 209
e 94 217
e 95 24
e 95 72
e 95 86
e 95 153
e 96 162
e 96 235
e 96 247
e 96 277
e 97 28
e 97 89
e 97 202
e 97 255
e 98 55
e 98 177
e 98 232
e 98 300
e 99 24
e 99 113
e 99 136
e 99 210
e 100 62
e 100 164
e 100 236
e 100 246
e 101 8
e 101 184
e 101 232
e 101 257
e 102 80
e 102 101
e 102 134
e 102 272
e 103 51
e 103 131
e 103 235
e 103 312
e 104 3
e 104 136
e 104 211
e 104 319
e 105 71
e 105 155
e 105 161
e 105 234
e 106 82
e 106 109
e 106 190
e 106 232
e 107 42
e 107 90
e 107 305
e 107 307
e 108 33
e 108 96
e 108 123
e 108 261
e 109 14
e 109 22
e 109 80
e 109 131
e 110 76
e 110 139
e 110 186
e 110 198
e 111 54
e 111 122
e 111 138
e 111 301
e 112 65
e 112 81
e 112 109
e 112 255
e 113 59
e 113 188
e 113 211
e 113 247
e 114 117
e 114 140
e 114 293
e 114 294
e 115 79
e 115 94
e 115 187
e 115 296
e 116 130
e 116 140
e 116 141
e 116 290
e 117 83
e 117 101
e 117 273
e 117 274
e 118 28
e 118 42
e 118 124
e 118 306
e 119 63
e 119 92
e 119 171
e 119 309
e 120 43
e 120 127
e 120 165
e 120 248
e 121 52
e 121 68
e 121 112
e 121 242
e 122 48
e 122 92
e 122 160
e 122 222
e 123 27
e 123 44
e 123 166
e 123 198
e 124 126
e 124 253
e 124 283
e 124 320
e 125 21
e 125 99
e 125 156
e 125 295
e 126 49
e 126 149
e 126 296
e 126 311
e 127 48
e 127 59
e 127 136
e 127 188
e 128 54
e 128 122
e 128 161
e 128 228
e 129 17
e 129 197
e 129 202
e 129 302
e 130 108
e 130 136
e 130 252
e 130 276
e 131 159
e 131 235
e 131 256
e 131 279
e 132 35
e 132 177
e 132 190
e 132 199
e 133 77
e 133 88
e 133 96
e 133 242
e 134 45
e 134 48
e 134 262
e 134 279
e 135 18
e 135 125
e 135 224
e 135 270
e 136 47
e 136 66
e 136 100
e 136 244
e 137 30
e 137 106
e 137 125
e 137 285
e 138 218
e 138 242
e 138 276
e 138 285
e 139 164
e 139 166
e 139 235
e 139 244
e 140 95
e 140 174
e 140 216
e 140 306
e 141 10
e 141 12
e 141 109
e 141 195
e 142 80
e 142 157
e 142 225
e 142 263
e 143 1
e 143 94
e 143 201
e 143 252
e 144 30
e 144 48
e 144 181
e 144 193
e 145 65
e 145 128
e 145 139
e 145 288
e 146 2
e 146 36
e 146 84
e 146 263
e 147 67
e 147 127
e 147 189
e 147 234
e 148 91
e 148 264
e 148 284
e 148 302
e 149 38
e 149 91
e 149 129
e 149 216
e 150 78
e 150 174
e 150 254
e 150 303
e 151 29
e 151 101
e 151 177
e 151 282
e 152 81
e 152 118
e 152 229
e 152 230
e 153 46
e 153 203
e 153 241
e 153 309
e 154 11
e 154 98
e 154 181
e 154 306
e 155 229
e 155 231
e 155 236
e 155 273
e 156 36
e 156 50
e 156 115
e 156 165
e 157 97
e 157 156
e 157 167
e 157 311
e 158 31
e 158 99
e 158 165
e 158 270
e 159 38
e 159 61
e 159 97
e 159 127
e 160 20
e 160 127
e 160 181
e 160 314
e 161 22
e 161 69
e 161 151
e 161 300
e 162 21
e 162 120
e 162 123
e 162 133
e 163 67
e 163 91
e 163 250
e 163 303
e 164 28
e 164 43
e 164 250
e 164 264
e 165 44
e 165 108
e 165 272
e 165 300
e 166 146
e 166 154
e 166 193
e 166 208
e 167 9
e 167 28
e 167 176
e 167 310
e 168 125
e 168 216
e 168 309
e 168 318
e 169 58
e 169 115
e 169 127
e 169 162
e 170 22
e 170 54
e 170 95
e 170 244
e 171 25
e 171 122
e 171 227
e 171 265
e 172 29
e 172 142
e 172 245
e 172 260
e 173 23
e 173 71
e 173 80
e 173 242
e 174 85
e 174 116
e 174 188
e 174 290
e 175 28
e 175 75
e 175 259
e 175 269
e 176 3
e 176 8
e 176 28
e 176 189
e 177 31
e 177 75
e 177 153
e 177 220
e 178 15
e 178 200
e 178 220
e 178 274
e 179 3
e 179 61
e 179 150
e 179 233
e 180 27
e 180 73
e 180 286
e 180 309
e 181 5
e 181 83
e 181 209
e 181 279
e 182 20
e 182 82
e 182 257
e 182 293
e 183 24
e 183 52
e 183 81
e 183 262
e 184 39
e 184 218
e 184 225
e 184 313
e 185 16
e 185 118
e 185 133
e 185 297
e 186 103
e 186 125
e 186 161
e 186 300
e 187 149
e 187 183
e 187 202
e 187 235
e 188 163
e 188 290
e 188 293
e 188 306
e 189 37
e 189 122
e 189 219
e 189 269
e 190 26
e 190 56
e 190 66
e 190 309
e 191 15
e 191 147
e 191 277
e 191 300
e 192 33
e 192 166
e 192 199
e 192 307
e 193 98
e 193 114
e 193 230
e 193 299
e 194 137
e 194 197
e 194 239
e 194 269
e 195 129
e 195 145
e 195 245
e 195 314
e 196 96
e 196 130
e 196 134
e 196 310
e 197 138
e 197 166
e 197 258
e 197 297
e 198 52
e 198 173
e 198 270
e 198 272
e 199 105
e 199 209
e 199 258
e 199 263
e 200 28
e 200 106
e 200 201
e 200 256
e 201 27
e 201 275
e 201 278
e 201 297
e 202 57
e 202 64
e 202 161
e 202 310
e 203 43
e 203 104
e 203 147
e 203 221
e 204 102
e 204 111
e 204 112
e 204 249
e 205 69
e 205 113
e 205 259
e 205 296
e 206 185
e 206 187
e 206 246
e 206 285
e 207 91
e 207 102
e 207 160
e 207 281
e 208 42
e 208 129
e 208 146
e 208 175
e 209 78
e 209 171
e 209 191
e 209 227
e 210 12
e 210 66
e 210 70
e 210 213
e 211 2
e 211 25
e 211 93
e 211 161
e 212 151
e 212 185
e 212 308
e 212 311
e 213 54
e 213 84
e 213 126
e 213 204
e 214 132
e 214 204
e 214 237
e 214 288
e 215 29
e 215 78
e 215 200
e 215 302
e 216 53
e 216 64
e 216 146
e 216 169
e 217 17
e 217 104
e 217 216
e 217 236
e 218 25
e 218 150
e 218 282
e 218 311
e 219 8
e 219 158
e 219 294
e 219 320
e 220 70
e 220 80
e 220 186
e 220 234
e 221 118
e 221 233
e 221 278
e 221 286
e 222 89
e 222 150
e 222 268
e 222 278
e 223 2
e 223 33
e 223 108
e 223 286
e 224 36
e 224 105
e 224 111
e 224 289
e 225 22
e 225 164
e 225 235
e 225 239
e 226 64
e 226 171
e 226 242
e 226 291
e 227 68
e 227 179
e 227 180
e 227 258
e 228 42
e 228 175
e 228 194
e 228 282
e 229 49
e 229 196
e 229 249
e 229 256
e 230 58
e 230 121
e 230 155
e 230 196
e 231 114
e 231 137
e 231 271
e 231 272
e 232 101
e 232 102
e 232 207
e 232 218
e 233 81
e 233 91
e 233 123
e 233 190
e 234 156
e 234 182
e 234 185
e 234 252
e 235 42
e 235 78
e 235 191
e 235 317
e 236 180
e 236 204
e 236 298
e 236 320
e 237 17
e 237 20
e 237 255
e 237 259
e 238 99
e 238 277
e 238 296
e 238 305
e 239 46
e 239 181
e 239 217
e 239 238
e 240 38
e 240 227
e 240 243
e 240 248
e 241 194
e 241 215
e 241 256
e 241 308
e 242 78
e 242 229
e 242 275
e 242 294
e 243 31
e 243 40
e 243 96
e 243 246
e 244 39
e 244 111
e 244 163
e 244 186
e 245 32
e 245 188
e 245 204
e 245 249
e 246 59
e 246 88
e 246 226
e 246 318
e 247 189
e 247 214
e 247 245
e 247 291
e 248 56
e 248 73
e 248 174
e 248 190
e 249 21
e 249 183
e 249 226
e 249 278
e 250 49
e 250 153
e 250 200
e 250 228
e 251 265
e 251 266
e 251 280
e 251 295
e 252 110
e 252 125
e 252 188
e 252 192
e 253 36
e 253 74
e 253 200
e 253 218
e 254 18
e 254 114
e 254 142
e 254 276
e 255 77
e 255 204
e 255 276
e 255 310
e 256 32
e 256 109
e 256 136
e 256 266
e 257 184
e 257 196
e 257 225
e 257 311
e 258 29
e 258 169
e 258 204
e 258 241
e 259 32
e 259 146
e 259 172
e 259 265
e 260 82
e 260 94
e 260 131
e 260 170
e 261 13
e 261 129
e 261 268
e 261 293
e 262 63
e 262 73
e 262 109
e 262 188
e 263 86
e 263 146
e 263 212
e 263 219
e 264 41
e 264 70
e 264 126
e 264 131
e 265 143
e 265 244
e 265 279
e 265 305
e 266 219
e 266 224
e 266 310
e 266 315
e 267 172
e 267 226
e 267 304
e 267 320
e 268 102
e 268 168
e 268 214
e 268 247
e 269 71
e 269 192
e 269 214
e 269 296
e 270 40
e 270 108
e 270 202
e 270 285
e 271 81
e 271 112
e 271 130
e 271 149
e 272 82
e 272 93
e 272 238
e 272 312
e 273 8
e 273 20
e 273 239
e 273 269
e 274 34
e 274 42
e 274 133
e 274 241
e 275 87
e 275 147
e 275 199
e 275 266
e 276 60
e 276 61
e 276 147
e 276 238
e 277 26
e 277 143
e 277 231
e 277 284
e 278 83
e 278 116
e 278 155
e 278 158
e 279 195
e 279 195
e 279 202
e 279 221
e 280 57
e 280 107
e 280 113
e 280 265
e 281 18
e 281 185
e 281 186
e 281 193
e 282 40
e 282 167
e 282 274
e 282 296
e 283 95
e 283 135
e 283 175
e 283 259
e 284 49
e 284 167
e 284 180
e 284 320
e 285 6
e 285 262
e 285 266
e 285 290
e 286 6
e 286 115
e 286 168
e 286 236
e 287 100
e 287 130
e 287 162
e 287 314
e 288 117
e 288 202
e 288 281
e 288 316
e 289 7
e 289 62
e 289 231
e 289 318
e 290 4
e 290 110
e 290 131
e 290 199
e 291 50
e 291 188
e 291 216
e 291 303
e 292 62
e 292 128
e 292 245
e 292 271
e 293 92
e 293 94
e 293 193
e 293 251
e 294 94
e 294 170
e 294 241
e 294 267
e 295 39
e 295 82
e 295 126
e 295 224
e 296 3
e 296 122
e 296 236
e 296 240
e 297 77
e 297 221
e 297 243
e 297 310
e 298 93
e 298 102
e 298 119
e 298 265
e 299 6
e 299 13
e 299 150
e 299 235
e 300 15
e 300 124
e 300 204
e 300 233
e 301 74
e 301 125
e 301 214
e 301 292
e 302 122
e 302 191
e 302 196
e 302 225
e 303 97
e 303 196
e 303 237
e 303 282
e 304 100
e 304 118
e 304 210
e 304 289
e 305 37
e 305 97
e 305 163
e 305 254
e 306 100
e 306 174
e 306 284
e 306 292
e 307 89
e 307 184
e 307 208
e 307 223
e 308 79
e 308 79
e 308 156
e 308 158
e 309 42
e 309 100
e 309 139
e 309 313
e 310 56
e 310 71
e 310 97
e 310 298
e 311 2
e 311 24
e 311 53
e 311 242
e 312 58
e 312 192
e 312 249
e 312 280
e 313 25
e 313 55
e 313 217
e 313 253
e 314 94
e 314 106
e 314 125
e 314 298
e 315 27
e 315 141
e 315 221
e 315 248
e 316 95
e 316 104
e 316 191
e 316 192
e 317 92
e 317 160
e 317 270
e 317 280
e 318 38
e 318 105
e 318 189
e 318 320
e 319 77
e 319 117
e 319 223
e 319 230
e 320 54
e 320 157
e 320 299
e 320 319
